(declare-fun var0 () String)
(declare-fun var1 () String)
(declare-fun var2 () String)
(declare-fun var3 () String)
(declare-fun var4 () String)
(declare-fun var5 () String)
(declare-fun var6 () String)
(declare-fun var7 () String)
(declare-fun var8 () String)
(declare-fun var9 () String)
(declare-fun var10 () String)
(declare-fun var11 () String)
(declare-fun var12 () String)
(declare-fun var13 () String)
(declare-fun var14 () String)
(declare-fun var15 () String)
(declare-fun var16 () String)
(declare-fun var17 () String)
(declare-fun var18 () String)
(declare-fun var19 () String)
(declare-fun var20 () String)
(declare-fun var21 () String)
(declare-fun var22 () String)
(declare-fun var23 () String)
(declare-fun var24 () String)
(declare-fun var25 () String)
(declare-fun var26 () String)
(declare-fun var27 () String)
(declare-fun var28 () String)
(declare-fun var29 () String)
(declare-fun var30 () String)
(declare-fun var31 () String)
(declare-fun var32 () String)
(declare-fun var33 () String)
(declare-fun var34 () String)
(declare-fun var35 () String)
(declare-fun var36 () String)
(declare-fun var37 () String)
(declare-fun var38 () String)
(declare-fun var39 () String)
(declare-fun var40 () String)
(declare-fun var41 () String)
(declare-fun var42 () String)
(declare-fun var43 () String)
(declare-fun var44 () String)
(declare-fun var45 () String)
(declare-fun var46 () String)
(declare-fun var47 () String)
(declare-fun var48 () String)
(declare-fun var49 () String)
(declare-fun var50 () String)
(declare-fun var51 () String)
(declare-fun var52 () String)
(declare-fun var53 () String)
(declare-fun var54 () String)
(declare-fun var55 () String)
(declare-fun var56 () String)
(declare-fun var57 () String)
(declare-fun var58 () String)
(declare-fun var59 () String)
(declare-fun var60 () String)
(assert (= var0 (str.++ var1 var2)))
(assert (= var2 (str.++ var3 var4)))
(assert (= var4 (str.++ var5 var6)))
(assert (= var6 (str.++ var7 var8)))
(assert (= var8 (str.++ var9 var10)))
(assert (= var10 (str.++ var11 var12)))
(assert (= var12 (str.++ var13 var14)))
(assert (= var14 (str.++ var15 var16)))
(assert (= var16 (str.++ var17 var18)))
(assert (= var18 (str.++ var19 var20)))
(assert (= var20 (str.++ var21 var22)))
(assert (= var22 (str.++ var23 var24)))
(assert (= var24 (str.++ var25 var26)))
(assert (= var26 (str.++ var27 var28)))
(assert (= var28 (str.++ var29 var30)))
(assert (= var30 (str.++ var31 var32)))
(assert (= var32 (str.++ var33 var34)))
(assert (= var34 (str.++ var35 var36)))
(assert (= var36 (str.++ var37 var38)))
(assert (= var38 (str.++ var39 var40)))
(assert (= var40 (str.++ var41 var42)))
(assert (= var42 (str.++ var43 var44)))
(assert (= var44 (str.++ var45 var46)))
(assert (= var46 (str.++ var47 var48)))
(assert (= var48 (str.++ var49 var50)))
(assert (= var50 (str.++ var51 var52)))
(assert (= var52 (str.++ var53 var54)))
(assert (= var54 (str.++ var55 var56)))
(assert (= var56 (str.++ var57 var58)))
(assert (= var58 (str.++ var59 var60)))
(assert (= var0 "solution"))
(assert (= "I" (str.at var33 685)))
(assert (= "y" (str.at var5 219)))
(assert (= "b" (str.at var47 249)))
(assert (= "}" (str.at var60 369)))
(assert (= "n" (str.at var54 657)))
(assert (= "{" (str.at var49 43)))
(assert (= "#" (str.at var5 12)))
(assert (= "r" (str.at var30 918)))
(assert (= "0" (str.at var45 719)))
(assert (= "S" (str.at var54 961)))
(assert (= "g" (str.at var17 594)))
(assert (= "2" (str.at var16 141)))
(assert (= "x" (str.at var6 285)))
(assert (= "t" (str.at var60 495)))
(assert (= "5" (str.at var46 944)))
(assert (= "p" (str.at var3 263)))
(assert (= "V" (str.at var0 278)))
(assert (= "A" (str.at var9 5)))
(assert (= "M" (str.at var31 712)))
(assert (= "i" (str.at var33 937)))
(assert (= "3" (str.at var33 762)))
(assert (= ";" (str.at var11 839)))
(assert (= "7" (str.at var4 900)))
(assert (= "y" (str.at var50 839)))
(assert (= ">" (str.at var21 809)))
(assert (= ")" (str.at var26 35)))
(assert (= "+" (str.at var56 354)))
(assert (= "K" (str.at var35 68)))
(assert (= "k" (str.at var40 487)))
(assert (= "U" (str.at var22 484)))
(assert (= "!" (str.at var60 62)))
(assert (= "~" (str.at var8 363)))
(assert (= "P" (str.at var40 953)))
(assert (= "e" (str.at var38 868)))
(assert (= "m" (str.at var39 233)))
(assert (= "[" (str.at var13 919)))
(assert (= "L" (str.at var36 875)))
(assert (= "f" (str.at var48 325)))
(assert (= "Q" (str.at var49 817)))
(assert (= "P" (str.at var4 858)))
(assert (= "a" (str.at var26 391)))
(assert (= "~" (str.at var29 408)))
(assert (= "U" (str.at var36 237)))
(assert (= "V" (str.at var6 716)))
(assert (= "/" (str.at var44 892)))
(assert (= "b" (str.at var60 295)))
(assert (= "q" (str.at var3 483)))
(assert (= "o" (str.at var7 294)))
(assert (= "M" (str.at var5 72)))
(assert (= ">" (str.at var3 914)))
(assert (= "-" (str.at var39 519)))
(assert (= "p" (str.at var37 485)))
(assert (= "p" (str.at var16 294)))
(assert (= "l" (str.at var52 983)))
(assert (= "e" (str.at var8 657)))
(assert (= "+" (str.at var43 466)))
(assert (= "I" (str.at var52 203)))
(assert (= "n" (str.at var31 816)))
(assert (= "|" (str.at var6 491)))
(assert (= "X" (str.at var35 543)))
(assert (= "Q" (str.at var6 969)))
(assert (= "." (str.at var16 42)))
(assert (= "~" (str.at var35 267)))
(assert (= "`" (str.at var15 627)))
(assert (= "D" (str.at var37 669)))
(assert (= "0" (str.at var1 886)))
(assert (= "T" (str.at var16 658)))
(assert (= "5" (str.at var36 572)))
(assert (= "d" (str.at var55 449)))
(assert (= "$" (str.at var24 89)))
(assert (= "8" (str.at var3 234)))
(assert (= "(" (str.at var44 606)))
(assert (= "U" (str.at var56 245)))
(assert (= "c" (str.at var2 105)))
(assert (= "G" (str.at var34 124)))
(assert (= "s" (str.at var30 497)))
(assert (= "%" (str.at var15 321)))
(assert (= "Q" (str.at var40 898)))
(assert (= "x" (str.at var34 166)))
(assert (= "h" (str.at var60 866)))
(assert (= "t" (str.at var32 62)))
(assert (= ";" (str.at var36 120)))
(assert (= "z" (str.at var22 200)))
(assert (= "F" (str.at var36 578)))
(assert (= "h" (str.at var36 693)))
(assert (= "&" (str.at var58 329)))
(assert (= "P" (str.at var26 545)))
(assert (= "Y" (str.at var7 992)))
(assert (= "(" (str.at var18 722)))
(assert (= "T" (str.at var59 187)))
(assert (= "1" (str.at var27 835)))
(assert (= "R" (str.at var7 685)))
(assert (= "a" (str.at var47 414)))
(assert (= "C" (str.at var7 427)))
(assert (= "n" (str.at var29 778)))
(assert (= "K" (str.at var59 290)))
(assert (= "4" (str.at var7 388)))
(assert (= "'" (str.at var9 920)))
(assert (= "L" (str.at var15 145)))
(assert (= ">" (str.at var1 141)))
(assert (= ")" (str.at var57 979)))
(assert (= "|" (str.at var1 502)))
(assert (= "9" (str.at var35 239)))
(assert (= "R" (str.at var52 757)))
(assert (= "X" (str.at var14 440)))
(assert (= "J" (str.at var16 67)))
(assert (= "k" (str.at var20 714)))
(assert (= "v" (str.at var8 549)))
(assert (= "8" (str.at var26 208)))
(assert (= "6" (str.at var57 350)))
(assert (= "|" (str.at var57 348)))
(assert (= "O" (str.at var50 852)))
(assert (= "N" (str.at var32 872)))
(assert (= "J" (str.at var60 676)))
(assert (= "3" (str.at var39 718)))
(assert (= "v" (str.at var58 681)))
(assert (= "x" (str.at var41 40)))
(assert (= "X" (str.at var27 337)))
(assert (= "t" (str.at var17 766)))
(assert (= "T" (str.at var26 524)))
(assert (= "%" (str.at var45 144)))
(assert (= "e" (str.at var30 631)))
(assert (= "!" (str.at var59 138)))
(assert (= "`" (str.at var42 936)))
(assert (= "/" (str.at var47 208)))
(assert (= "z" (str.at var35 678)))
(assert (= "o" (str.at var30 947)))
(assert (= "P" (str.at var6 2)))
(assert (= "m" (str.at var19 606)))
(assert (= "'" (str.at var32 119)))
(assert (= "S" (str.at var23 568)))
(assert (= "u" (str.at var31 679)))
(assert (= "C" (str.at var17 372)))
(assert (= "2" (str.at var31 700)))
(assert (= ">" (str.at var29 928)))
(assert (= "V" (str.at var33 836)))
(assert (= "j" (str.at var50 403)))
(assert (= "-" (str.at var33 901)))
(assert (= "H" (str.at var41 29)))
(assert (= "d" (str.at var58 795)))
(assert (= "G" (str.at var58 54)))
(assert (= "(" (str.at var14 118)))
(assert (= ")" (str.at var29 315)))
(assert (= "o" (str.at var41 544)))
(assert (= "p" (str.at var7 151)))
(assert (= "K" (str.at var10 139)))
(assert (= "p" (str.at var52 811)))
(assert (= "~" (str.at var32 190)))
(assert (= "l" (str.at var42 689)))
(assert (= "|" (str.at var54 538)))
(assert (= "W" (str.at var41 83)))
(assert (= "U" (str.at var2 936)))
(assert (= "O" (str.at var29 139)))
(assert (= "," (str.at var50 864)))
(assert (= "I" (str.at var4 399)))
(assert (= "b" (str.at var0 127)))
(assert (= "\\" (str.at var37 415)))
(assert (= "$" (str.at var55 803)))
(assert (= ">" (str.at var14 524)))
(assert (= "r" (str.at var30 554)))
(assert (= "p" (str.at var10 932)))
(assert (= "5" (str.at var11 72)))
(assert (= "@" (str.at var55 790)))
(assert (= "?" (str.at var1 33)))
(assert (= "_" (str.at var7 432)))
(assert (= "(" (str.at var41 255)))
(assert (= "+" (str.at var8 895)))
(assert (= "O" (str.at var47 436)))
(assert (= "B" (str.at var38 63)))
(assert (= "0" (str.at var25 850)))
(assert (= "7" (str.at var48 173)))
(assert (= "]" (str.at var6 433)))
(assert (= "=" (str.at var38 263)))
(assert (= "!" (str.at var49 386)))
(assert (= "y" (str.at var42 162)))
(assert (= "U" (str.at var18 361)))
(assert (= "r" (str.at var42 684)))
(assert (= "h" (str.at var56 651)))
(assert (= "^" (str.at var57 85)))
(assert (= "6" (str.at var17 862)))
(assert (= "*" (str.at var19 621)))
(assert (= "P" (str.at var2 687)))
(assert (= "B" (str.at var54 481)))
(assert (= "/" (str.at var60 335)))
(assert (= "i" (str.at var33 29)))
(assert (= "z" (str.at var32 779)))
(assert (= "P" (str.at var53 502)))
(assert (= ":" (str.at var55 20)))
(assert (= "!" (str.at var19 388)))
(assert (= "\\" (str.at var49 201)))
(assert (= "+" (str.at var40 923)))
(assert (= "Q" (str.at var34 189)))
(assert (= "." (str.at var12 76)))
(assert (= "5" (str.at var55 569)))
(assert (= "E" (str.at var30 202)))
(assert (= ">" (str.at var19 923)))
(assert (= "a" (str.at var15 156)))
(assert (= "i" (str.at var56 537)))
(assert (= "G" (str.at var3 897)))
(assert (= "m" (str.at var10 311)))
(assert (= "e" (str.at var57 605)))
(assert (= "&" (str.at var59 717)))
(assert (= "n" (str.at var28 192)))
(assert (= "K" (str.at var4 683)))
(assert (= "r" (str.at var40 810)))
(assert (= "E" (str.at var47 66)))
(assert (= "}" (str.at var55 454)))
(assert (= "o" (str.at var12 128)))
(assert (= ":" (str.at var57 107)))
(assert (= ">" (str.at var17 312)))
(assert (= "|" (str.at var46 165)))
(assert (= "U" (str.at var15 144)))
(assert (= "1" (str.at var32 962)))
(assert (= "U" (str.at var52 420)))
(assert (= "v" (str.at var34 749)))
(assert (= "z" (str.at var29 128)))
(assert (= "d" (str.at var26 604)))
(assert (= "b" (str.at var17 773)))
(assert (= "T" (str.at var32 989)))
(assert (= "*" (str.at var16 618)))
(assert (= "Q" (str.at var25 4)))
(assert (= "&" (str.at var24 695)))
(assert (= "9" (str.at var49 149)))
(assert (= "." (str.at var44 997)))
(assert (= "G" (str.at var28 175)))
(assert (= "0" (str.at var35 344)))
(assert (= "w" (str.at var16 720)))
(assert (= "9" (str.at var59 651)))
(assert (= "8" (str.at var46 17)))
(assert (= "1" (str.at var17 632)))
(assert (= "c" (str.at var55 551)))
(assert (= "Q" (str.at var48 607)))
(assert (= "L" (str.at var13 764)))
(assert (= "&" (str.at var16 377)))
(assert (= "?" (str.at var48 500)))
(assert (= "q" (str.at var38 216)))
(assert (= "R" (str.at var50 718)))
(assert (= "!" (str.at var40 674)))
(assert (= "4" (str.at var5 746)))
(assert (= "X" (str.at var34 537)))
(assert (= "(" (str.at var51 791)))
(assert (= "%" (str.at var30 865)))
(assert (= "Z" (str.at var57 799)))
(assert (= "D" (str.at var56 874)))
(assert (= "C" (str.at var33 375)))
(assert (= "\\" (str.at var45 354)))
(assert (= "d" (str.at var18 986)))
(assert (= "P" (str.at var27 120)))
(assert (= ":" (str.at var20 590)))
(assert (= "B" (str.at var38 153)))
(assert (= "M" (str.at var5 702)))
(assert (= """" (str.at var49 722)))
(assert (= "a" (str.at var44 235)))
(assert (= "V" (str.at var0 432)))
(assert (= "l" (str.at var13 422)))
(assert (= ":" (str.at var13 507)))
(assert (= "3" (str.at var32 574)))
(assert (= "r" (str.at var32 12)))
(assert (= "U" (str.at var17 129)))
(assert (= "p" (str.at var29 148)))
(assert (= "X" (str.at var20 506)))
(assert (= "U" (str.at var27 274)))
(assert (= "4" (str.at var12 938)))
(assert (= "R" (str.at var11 943)))
(assert (= "Z" (str.at var3 300)))
(assert (= "]" (str.at var28 499)))
(assert (= "k" (str.at var48 212)))
(assert (= "{" (str.at var1 507)))
(assert (= "D" (str.at var22 572)))
(assert (= "V" (str.at var5 919)))
(assert (= "b" (str.at var1 430)))
(assert (= "*" (str.at var30 76)))
(assert (= "j" (str.at var49 828)))
(assert (= "i" (str.at var41 547)))
(assert (= "|" (str.at var34 428)))
(assert (= "{" (str.at var19 939)))
(assert (= "L" (str.at var3 207)))
(assert (= "?" (str.at var10 253)))
(assert (= "A" (str.at var5 45)))
(assert (= "2" (str.at var17 15)))
(assert (= "(" (str.at var41 758)))
(assert (= "M" (str.at var7 397)))
(assert (= "g" (str.at var18 291)))
(assert (= "#" (str.at var46 600)))
(assert (= "3" (str.at var25 466)))
(assert (= "d" (str.at var12 547)))
(assert (= "6" (str.at var6 170)))
(assert (= "0" (str.at var7 820)))
(assert (= "b" (str.at var25 908)))
(assert (= "X" (str.at var42 178)))
(assert (= "m" (str.at var8 754)))
(assert (= "u" (str.at var52 567)))
(assert (= "4" (str.at var50 85)))
(assert (= "Z" (str.at var16 849)))
(assert (= "'" (str.at var34 936)))
(assert (= "n" (str.at var39 930)))
(assert (= "w" (str.at var36 136)))
(assert (= "4" (str.at var49 399)))
(assert (= "-" (str.at var10 255)))
(assert (= "}" (str.at var22 299)))
(assert (= "X" (str.at var31 393)))
(assert (= "!" (str.at var57 252)))
(assert (= "L" (str.at var27 806)))
(assert (= "N" (str.at var43 893)))
(assert (= "&" (str.at var10 681)))
(assert (= "<" (str.at var54 434)))
(assert (= ":" (str.at var53 1000)))
(assert (= "p" (str.at var38 176)))
(assert (= "3" (str.at var9 380)))
(assert (= "D" (str.at var28 402)))
(assert (= "." (str.at var53 380)))
(assert (= "<" (str.at var31 459)))
(assert (= "i" (str.at var48 854)))
(assert (= "U" (str.at var44 755)))
(assert (= "c" (str.at var7 467)))
(assert (= "a" (str.at var0 624)))
(assert (= "c" (str.at var2 52)))
(assert (= "p" (str.at var25 477)))
(assert (= "e" (str.at var53 294)))
(assert (= "f" (str.at var10 84)))
(assert (= "t" (str.at var47 817)))
(assert (= "<" (str.at var24 719)))
(assert (= "2" (str.at var19 839)))
(assert (= "O" (str.at var19 929)))
(assert (= "@" (str.at var8 678)))
(assert (= "j" (str.at var52 122)))
(assert (= "T" (str.at var23 563)))
(assert (= "6" (str.at var30 632)))
(assert (= "c" (str.at var23 293)))
(assert (= "*" (str.at var22 468)))
(assert (= "P" (str.at var22 676)))
(assert (= "=" (str.at var32 963)))
(assert (= "?" (str.at var16 482)))
(assert (= "G" (str.at var19 382)))
(assert (= "^" (str.at var15 496)))
(assert (= "Z" (str.at var14 808)))
(assert (= "I" (str.at var46 80)))
(assert (= "$" (str.at var16 152)))
(assert (= "p" (str.at var19 228)))
(assert (= "p" (str.at var54 144)))
(assert (= "f" (str.at var54 136)))
(assert (= "3" (str.at var34 103)))
(assert (= ")" (str.at var46 381)))
(assert (= "p" (str.at var49 602)))
(assert (= "5" (str.at var2 124)))
(assert (= "H" (str.at var41 22)))
(assert (= "u" (str.at var3 286)))
(assert (= "z" (str.at var25 582)))
(assert (= "5" (str.at var37 316)))
(assert (= "'" (str.at var30 189)))
(assert (= "Z" (str.at var52 264)))
(assert (= "Y" (str.at var52 202)))
(assert (= "T" (str.at var57 785)))
(assert (= "f" (str.at var23 844)))
(assert (= "N" (str.at var53 438)))
(assert (= "j" (str.at var56 292)))
(assert (= "d" (str.at var18 120)))
(assert (= "M" (str.at var25 384)))
(assert (= "%" (str.at var0 977)))
(assert (= "|" (str.at var34 765)))
(assert (= "p" (str.at var26 603)))
(assert (= "3" (str.at var9 603)))
(assert (= "X" (str.at var34 30)))
(assert (= "+" (str.at var13 371)))
(assert (= "(" (str.at var45 10)))
(assert (= "?" (str.at var37 635)))
(assert (= ")" (str.at var56 491)))
(assert (= "s" (str.at var29 102)))
(assert (= "[" (str.at var10 555)))
(assert (= "C" (str.at var16 312)))
(assert (= "Q" (str.at var38 648)))
(assert (= "5" (str.at var45 262)))
(assert (= "A" (str.at var49 542)))
(assert (= "F" (str.at var1 37)))
(assert (= "r" (str.at var44 723)))
(assert (= "1" (str.at var34 172)))
(assert (= "j" (str.at var22 721)))
(assert (= "`" (str.at var25 895)))
(assert (= ";" (str.at var20 611)))
(assert (= "<" (str.at var46 497)))
(assert (= "Q" (str.at var43 827)))
(assert (= "#" (str.at var0 245)))
(assert (= "j" (str.at var60 326)))
(assert (= "X" (str.at var25 912)))
(assert (= "O" (str.at var3 742)))
(assert (= "C" (str.at var1 694)))
(assert (= "v" (str.at var41 361)))
(assert (= "F" (str.at var3 595)))
(assert (= "'" (str.at var51 719)))
(assert (= "p" (str.at var31 703)))
(assert (= "l" (str.at var46 521)))
(assert (= "e" (str.at var8 819)))
(assert (= "v" (str.at var3 56)))
(assert (= "O" (str.at var23 614)))
(assert (= "c" (str.at var50 801)))
(assert (= "$" (str.at var0 686)))
(assert (= "Q" (str.at var38 158)))
(assert (= "u" (str.at var57 866)))
(assert (= ")" (str.at var37 899)))
(assert (= "F" (str.at var12 534)))
(assert (= "*" (str.at var50 725)))
(assert (= "H" (str.at var12 999)))
(assert (= "e" (str.at var40 705)))
(assert (= "#" (str.at var1 958)))
(assert (= "@" (str.at var6 51)))
(assert (= "Z" (str.at var10 560)))
(assert (= "o" (str.at var28 298)))
(assert (= "D" (str.at var52 125)))
(assert (= "j" (str.at var56 369)))
(assert (= ")" (str.at var37 175)))
(assert (= "P" (str.at var57 750)))
(assert (= "?" (str.at var5 553)))
(assert (= "b" (str.at var35 686)))
(assert (= "T" (str.at var54 490)))
(assert (= """" (str.at var26 404)))
(assert (= "i" (str.at var26 462)))
(assert (= "D" (str.at var44 904)))
(assert (= "D" (str.at var56 111)))
(assert (= "8" (str.at var5 61)))
(assert (= "!" (str.at var52 964)))
(assert (= "#" (str.at var50 57)))
(assert (= "Q" (str.at var13 35)))
(assert (= "Z" (str.at var34 887)))
(assert (= "z" (str.at var34 601)))
(assert (= "F" (str.at var13 344)))
(assert (= "'" (str.at var41 625)))
(assert (= "F" (str.at var43 31)))
(assert (= "e" (str.at var17 759)))
(assert (= "^" (str.at var18 368)))
(assert (= "G" (str.at var10 163)))
(assert (= "r" (str.at var52 929)))
(assert (= "t" (str.at var32 990)))
(assert (= "/" (str.at var34 782)))
(assert (= "@" (str.at var29 839)))
(assert (= "a" (str.at var43 785)))
(assert (= "k" (str.at var10 550)))
(assert (= "Q" (str.at var34 83)))
(assert (= "P" (str.at var20 117)))
(assert (= "L" (str.at var58 103)))
(assert (= "'" (str.at var33 343)))
(assert (= "N" (str.at var28 390)))
(assert (= "o" (str.at var18 833)))
(assert (= "d" (str.at var23 701)))
(assert (= "." (str.at var21 691)))
(assert (= "4" (str.at var26 702)))
(assert (= "," (str.at var46 40)))
(assert (= "@" (str.at var13 215)))
(assert (= "e" (str.at var57 777)))
(assert (= "&" (str.at var58 865)))
(assert (= """" (str.at var6 603)))
(assert (= "," (str.at var15 237)))
(assert (= "y" (str.at var17 885)))
(assert (= "e" (str.at var43 970)))
(assert (= "9" (str.at var29 828)))
(assert (= "+" (str.at var10 204)))
(assert (= "i" (str.at var11 233)))
(assert (= "t" (str.at var48 706)))
(assert (= "e" (str.at var14 989)))
(assert (= "-" (str.at var25 199)))
(assert (= "%" (str.at var41 283)))
(assert (= "V" (str.at var35 111)))
(assert (= "i" (str.at var16 36)))
(assert (= "W" (str.at var60 722)))
(assert (= "7" (str.at var1 948)))
(assert (= ":" (str.at var37 355)))
(assert (= "{" (str.at var53 12)))
(assert (= "F" (str.at var58 409)))
(assert (= "}" (str.at var19 16)))
(assert (= "1" (str.at var40 942)))
(assert (= "a" (str.at var18 53)))
(assert (= ":" (str.at var9 618)))
(assert (= "K" (str.at var50 312)))
(assert (= """" (str.at var39 576)))
(assert (= "(" (str.at var14 257)))
(assert (= "5" (str.at var8 51)))
(assert (= "_" (str.at var44 776)))
(assert (= "j" (str.at var46 258)))
(assert (= ")" (str.at var7 755)))
(assert (= "{" (str.at var15 437)))
(assert (= "M" (str.at var29 409)))
(assert (= "w" (str.at var28 687)))
(assert (= ":" (str.at var6 309)))
(assert (= "o" (str.at var53 668)))
(assert (= "i" (str.at var3 755)))
(assert (= "w" (str.at var6 473)))
(assert (= "O" (str.at var42 715)))
(assert (= "f" (str.at var30 199)))
(assert (= "&" (str.at var21 878)))
(assert (= "<" (str.at var48 858)))
(assert (= """" (str.at var37 914)))
(assert (= ")" (str.at var10 857)))
(assert (= "N" (str.at var7 288)))
(assert (= "%" (str.at var27 168)))
(assert (= ";" (str.at var47 112)))
(assert (= "s" (str.at var37 439)))
(assert (= "h" (str.at var36 80)))
(assert (= "O" (str.at var55 720)))
(assert (= "m" (str.at var45 231)))
(assert (= "b" (str.at var20 793)))
(assert (= "e" (str.at var3 843)))
(assert (= "H" (str.at var28 145)))
(assert (= "d" (str.at var16 63)))
(assert (= "5" (str.at var12 683)))
(assert (= "+" (str.at var40 227)))
(assert (= "?" (str.at var27 525)))
(assert (= ">" (str.at var8 23)))
(assert (= "T" (str.at var23 677)))
(assert (= "_" (str.at var44 516)))
(assert (= "k" (str.at var31 284)))
(assert (= "6" (str.at var58 371)))
(assert (= "/" (str.at var45 843)))
(assert (= "k" (str.at var26 360)))
(assert (= "&" (str.at var39 208)))
(assert (= "M" (str.at var6 750)))
(assert (= "z" (str.at var38 789)))
(assert (= "N" (str.at var55 797)))
(assert (= "y" (str.at var59 80)))
(assert (= "E" (str.at var60 41)))
(assert (= "Y" (str.at var43 981)))
(assert (= "Z" (str.at var7 480)))
(assert (= ":" (str.at var16 270)))
(check-sat)